50
13712

483 267
716 492
556 903
656 886
583 719
294 692
835 191
899 628
784 440
431 222
180 288
357 399
883 633
105 544
799 584
78 472
946 180
410 503
737 463
797 788
600 394
951 407
704 692
673 636
385 133
860 555
156 288
336 264
379 395
173 242
961 604
796 425
491 467
429 523
151 78
149 98
299 984
204 877
71 21
246 628
399 995
218 338
681 495
912 62
306 643
126 940
39 977
452 956
857 324
606 828
